
  22   10
  10   10   10   10   10   10   10   10   10   10

   0   0   0   0   0   0   0   0   0   0   0   1 2 
  10  10  10  10  10  10  10  10  10  10  10   1 3 
   6  10  10  10  10  10  10  10  10  10  10   2 8 4 
   7  10  10  10  10  10  10  10  10  10  10   1 5 
   7  10  10  10  10  10  10  10  10  10  10   1 6 
   9  10  10  10  10  10  10  10  10  10  10   1 7 
  10  10  10  10  10  10  10  10  10  10  10   2 14 9 
   3  10  10  10  10  10  10  10  10  10  10   2 14 10 
   5  10  10  10  10  10  10  10  10  10  10   1 10 
   5  10  10  10  10  10  10  10  10  10  10   1 11 
   5  10  10  10  10  10  10  10  10  10  10   1 12 
   6  10  10  10  10  10  10  10  10  10  10   1 13 
   9  10  10  10  10  10  10  10  10  10  10   1 15 
   3  10  10  10  10  10  10  10  10  10  10   1 15 
   5  10  10  10  10  10  10  10  10  10  10   1 16 
   7  10  10  10  10  10  10  10  10  10  10   1 17 
   6  10  10  10  10  10  10  10  10  10  10   1 18 
   4  10  10  10  10  10  10  10  10  10  10   1 19 
   6  10  10  10  10  10  10  10  10  10  10   1 20 
   9  10  10  10  10  10  10  10  10  10  10   1 21 
  10  10  10  10  10  10  10  10  10  10  10   1 22
   0   0   0   0   0   0   0   0   0   0   0   0 
